(set-info :smt-lib-version 2.6)
(set-logic QF_FP)
(set-option :produce-models true)
(set-info :source |Random FP created by PyMPF|)
(set-info :license |https://www.gnu.org/licenses/gpl-3.0.html|)
(set-info :category random)
(set-info :status sat)
(declare-const x Float32)
(assert (= x (fp #b1 #b00001000 #b00101110111111111001111)))
;; x should be Float32(0x84177FCF [Rational(-9928655, 5575186299632655785383929568162090376495104), -0.000000])

(declare-const y Float32)
(assert (= y (fp #b1 #b10010001 #b01010100010010111110000)))
;; y should be Float32(0xC8AA25F0 [Rational(-696927, 2), -348463.500000])

(declare-const z Float32)
(assert (= z ((_ to_fp 8 24) #x6DF451DC)))
;; z should be Float32(0x6DF451DC [Rational(9451663038552901631743098880), 9451663038552901631743098880.000000])

(declare-const result Float32)
(assert (= result (fp.fma RNE x y z)))
(assert (= result (fp #b0 #b11011011 #b11101000101000111011100)))
(check-sat)
(exit)
